(set-info :smt-lib-version 2.6)
(set-info :category "crafted")
(set-logic QF_FFA)
(define-sort FF0 () (_ FiniteField 52435875175126190479447740508185965837690552500527637822603658699938581184513))
(declare-fun _38_alt () FF0)
(declare-fun _37_alt () FF0)
(declare-fun _11_alt () FF0)
(declare-fun _36_alt () FF0)
(declare-fun _10_alt () FF0)
(declare-fun _35_alt () FF0)
(declare-fun _9_alt () FF0)
(declare-fun _34_alt () FF0)
(declare-fun _8_alt () FF0)
(declare-fun _33_alt () FF0)
(declare-fun _7_alt () FF0)
(declare-fun _32_alt () FF0)
(declare-fun _6_alt () FF0)
(declare-fun _31_alt () FF0)
(declare-fun _5_alt () FF0)
(declare-fun _30_alt () FF0)
(declare-fun _4_alt () FF0)
(declare-fun _29_alt () FF0)
(declare-fun _3_alt () FF0)
(declare-fun _28_alt () FF0)
(declare-fun _2_alt () FF0)
(declare-fun _27_alt () FF0)
(declare-fun _19_alt () FF0)
(declare-fun _26_alt () FF0)
(declare-fun _18_alt () FF0)
(declare-fun _25_alt () FF0)
(declare-fun _17_alt () FF0)
(declare-fun _24_alt () FF0)
(declare-fun _16_alt () FF0)
(declare-fun _23_alt () FF0)
(declare-fun _15_alt () FF0)
(declare-fun _22_alt () FF0)
(declare-fun _14_alt () FF0)
(declare-fun _21_alt () FF0)
(declare-fun _13_alt () FF0)
(declare-fun _20_alt () FF0)
(declare-fun _12_alt () FF0)
(declare-fun _1_alt () FF0)
(declare-fun _0_alt () FF0)
(declare-fun _38 () FF0)
(declare-fun _37 () FF0)
(declare-fun _11 () FF0)
(declare-fun _36 () FF0)
(declare-fun _10 () FF0)
(declare-fun _35 () FF0)
(declare-fun _9 () FF0)
(declare-fun _34 () FF0)
(declare-fun _8 () FF0)
(declare-fun _33 () FF0)
(declare-fun _7 () FF0)
(declare-fun _32 () FF0)
(declare-fun _6 () FF0)
(declare-fun _31 () FF0)
(declare-fun _5 () FF0)
(declare-fun _30 () FF0)
(declare-fun _4 () FF0)
(declare-fun _29 () FF0)
(declare-fun _3 () FF0)
(declare-fun _28 () FF0)
(declare-fun _2 () FF0)
(declare-fun _27 () FF0)
(declare-fun _19 () FF0)
(declare-fun _26 () FF0)
(declare-fun _18 () FF0)
(declare-fun _25 () FF0)
(declare-fun _17 () FF0)
(declare-fun _24 () FF0)
(declare-fun _16 () FF0)
(declare-fun _23 () FF0)
(declare-fun _15 () FF0)
(declare-fun _22 () FF0)
(declare-fun _14 () FF0)
(declare-fun _21 () FF0)
(declare-fun _13 () FF0)
(declare-fun _20 () FF0)
(declare-fun _12 () FF0)
(declare-fun _1 () FF0)
(declare-fun _0 () FF0)
(declare-fun out_alt () FF0)
(declare-fun out () FF0)
(assert 
  (let ((let0 (as ff52435875175126190479447740508185965837690552500527637822603658699938581184512 FF0)))
  (let ((let1 _38_alt))
  (let ((let2 (ff.mul let1 let0)))
  (let ((let3 _37_alt))
  (let ((let4 _11_alt))
  (let ((let5 (ff.add let4 let3 let2)))
  (let ((let6 (ff.mul let3 let4)))
  (let ((let7 (= let6 let5)))
  (let ((let8 (ff.mul let3 let0)))
  (let ((let9 _36_alt))
  (let ((let10 _10_alt))
  (let ((let11 (ff.add let10 let9 let8)))
  (let ((let12 (ff.mul let9 let10)))
  (let ((let13 (= let12 let11)))
  (let ((let14 (ff.mul let9 let0)))
  (let ((let15 _35_alt))
  (let ((let16 _9_alt))
  (let ((let17 (ff.add let16 let15 let14)))
  (let ((let18 (ff.mul let15 let16)))
  (let ((let19 (= let18 let17)))
  (let ((let20 (ff.mul let15 let0)))
  (let ((let21 _34_alt))
  (let ((let22 _8_alt))
  (let ((let23 (ff.add let22 let21 let20)))
  (let ((let24 (ff.mul let21 let22)))
  (let ((let25 (= let24 let23)))
  (let ((let26 (ff.mul let21 let0)))
  (let ((let27 _33_alt))
  (let ((let28 _7_alt))
  (let ((let29 (ff.add let28 let27 let26)))
  (let ((let30 (ff.mul let27 let28)))
  (let ((let31 (= let30 let29)))
  (let ((let32 (ff.mul let27 let0)))
  (let ((let33 _32_alt))
  (let ((let34 _6_alt))
  (let ((let35 (ff.add let34 let33 let32)))
  (let ((let36 (ff.mul let33 let34)))
  (let ((let37 (= let36 let35)))
  (let ((let38 (ff.mul let33 let0)))
  (let ((let39 _31_alt))
  (let ((let40 _5_alt))
  (let ((let41 (ff.add let40 let39 let38)))
  (let ((let42 (ff.mul let39 let40)))
  (let ((let43 (= let42 let41)))
  (let ((let44 (ff.mul let39 let0)))
  (let ((let45 _30_alt))
  (let ((let46 _4_alt))
  (let ((let47 (ff.add let46 let45 let44)))
  (let ((let48 (ff.mul let45 let46)))
  (let ((let49 (= let48 let47)))
  (let ((let50 (ff.mul let45 let0)))
  (let ((let51 _29_alt))
  (let ((let52 _3_alt))
  (let ((let53 (ff.add let52 let51 let50)))
  (let ((let54 (ff.mul let51 let52)))
  (let ((let55 (= let54 let53)))
  (let ((let56 (ff.mul let51 let0)))
  (let ((let57 _28_alt))
  (let ((let58 _2_alt))
  (let ((let59 (ff.add let58 let57 let56)))
  (let ((let60 (ff.mul let57 let58)))
  (let ((let61 (= let60 let59)))
  (let ((let62 (ff.mul let57 let0)))
  (let ((let63 _27_alt))
  (let ((let64 _19_alt))
  (let ((let65 (ff.add let64 let63 let62)))
  (let ((let66 (ff.mul let63 let64)))
  (let ((let67 (= let66 let65)))
  (let ((let68 (ff.mul let63 let0)))
  (let ((let69 _26_alt))
  (let ((let70 _18_alt))
  (let ((let71 (ff.add let70 let69 let68)))
  (let ((let72 (ff.mul let69 let70)))
  (let ((let73 (= let72 let71)))
  (let ((let74 (ff.mul let69 let0)))
  (let ((let75 _25_alt))
  (let ((let76 _17_alt))
  (let ((let77 (ff.add let76 let75 let74)))
  (let ((let78 (ff.mul let75 let76)))
  (let ((let79 (= let78 let77)))
  (let ((let80 (ff.mul let75 let0)))
  (let ((let81 _24_alt))
  (let ((let82 _16_alt))
  (let ((let83 (ff.add let82 let81 let80)))
  (let ((let84 (ff.mul let81 let82)))
  (let ((let85 (= let84 let83)))
  (let ((let86 (ff.mul let81 let0)))
  (let ((let87 _23_alt))
  (let ((let88 _15_alt))
  (let ((let89 (ff.add let88 let87 let86)))
  (let ((let90 (ff.mul let87 let88)))
  (let ((let91 (= let90 let89)))
  (let ((let92 (ff.mul let87 let0)))
  (let ((let93 _22_alt))
  (let ((let94 _14_alt))
  (let ((let95 (ff.add let94 let93 let92)))
  (let ((let96 (ff.mul let93 let94)))
  (let ((let97 (= let96 let95)))
  (let ((let98 (ff.mul let93 let0)))
  (let ((let99 _21_alt))
  (let ((let100 _13_alt))
  (let ((let101 (ff.add let100 let99 let98)))
  (let ((let102 (ff.mul let99 let100)))
  (let ((let103 (= let102 let101)))
  (let ((let104 (ff.mul let99 let0)))
  (let ((let105 _20_alt))
  (let ((let106 _12_alt))
  (let ((let107 (ff.add let106 let105 let104)))
  (let ((let108 (ff.mul let105 let106)))
  (let ((let109 (= let108 let107)))
  (let ((let110 (ff.mul let105 let0)))
  (let ((let111 _1_alt))
  (let ((let112 _0_alt))
  (let ((let113 (ff.add let112 let111 let110)))
  (let ((let114 (ff.mul let112 let111)))
  (let ((let115 (= let114 let113)))
  (let ((let116 (ff.mul let64 let64)))
  (let ((let117 (= let116 let64)))
  (let ((let118 (ff.mul let70 let70)))
  (let ((let119 (= let118 let70)))
  (let ((let120 (ff.mul let76 let76)))
  (let ((let121 (= let120 let76)))
  (let ((let122 (ff.mul let82 let82)))
  (let ((let123 (= let122 let82)))
  (let ((let124 (ff.mul let88 let88)))
  (let ((let125 (= let124 let88)))
  (let ((let126 (ff.mul let94 let94)))
  (let ((let127 (= let126 let94)))
  (let ((let128 (ff.mul let100 let100)))
  (let ((let129 (= let128 let100)))
  (let ((let130 (ff.mul let106 let106)))
  (let ((let131 (= let130 let106)))
  (let ((let132 (ff.mul let4 let4)))
  (let ((let133 (= let132 let4)))
  (let ((let134 (ff.mul let10 let10)))
  (let ((let135 (= let134 let10)))
  (let ((let136 (ff.mul let16 let16)))
  (let ((let137 (= let136 let16)))
  (let ((let138 (ff.mul let22 let22)))
  (let ((let139 (= let138 let22)))
  (let ((let140 (ff.mul let28 let28)))
  (let ((let141 (= let140 let28)))
  (let ((let142 (ff.mul let34 let34)))
  (let ((let143 (= let142 let34)))
  (let ((let144 (ff.mul let40 let40)))
  (let ((let145 (= let144 let40)))
  (let ((let146 (ff.mul let46 let46)))
  (let ((let147 (= let146 let46)))
  (let ((let148 (ff.mul let52 let52)))
  (let ((let149 (= let148 let52)))
  (let ((let150 (ff.mul let58 let58)))
  (let ((let151 (= let150 let58)))
  (let ((let152 (ff.mul let111 let111)))
  (let ((let153 (= let152 let111)))
  (let ((let154 (ff.mul let112 let112)))
  (let ((let155 (= let154 let112)))
  (let ((let156 (and let155 let153 let151 let149 let147 let145 let143 let141 let139 let137 let135 let133 let131 let129 let127 let125 let123 let121 let119 let117 let115 let109 let103 let97 let91 let85 let79 let73 let67 let61 let55 let49 let43 let37 let31 let25 let19 let13 let7)))
  (let ((let157 _38))
  (let ((let158 (ff.mul let157 let0)))
  (let ((let159 _37))
  (let ((let160 _11))
  (let ((let161 (ff.add let160 let159 let158)))
  (let ((let162 (ff.mul let159 let160)))
  (let ((let163 (= let162 let161)))
  (let ((let164 (ff.mul let159 let0)))
  (let ((let165 _36))
  (let ((let166 _10))
  (let ((let167 (ff.add let166 let165 let164)))
  (let ((let168 (ff.mul let165 let166)))
  (let ((let169 (= let168 let167)))
  (let ((let170 (ff.mul let165 let0)))
  (let ((let171 _35))
  (let ((let172 _9))
  (let ((let173 (ff.add let172 let171 let170)))
  (let ((let174 (ff.mul let171 let172)))
  (let ((let175 (= let174 let173)))
  (let ((let176 (ff.mul let171 let0)))
  (let ((let177 _34))
  (let ((let178 _8))
  (let ((let179 (ff.add let178 let177 let176)))
  (let ((let180 (ff.mul let177 let178)))
  (let ((let181 (= let180 let179)))
  (let ((let182 (ff.mul let177 let0)))
  (let ((let183 _33))
  (let ((let184 _7))
  (let ((let185 (ff.add let184 let183 let182)))
  (let ((let186 (ff.mul let183 let184)))
  (let ((let187 (= let186 let185)))
  (let ((let188 (ff.mul let183 let0)))
  (let ((let189 _32))
  (let ((let190 _6))
  (let ((let191 (ff.add let190 let189 let188)))
  (let ((let192 (ff.mul let189 let190)))
  (let ((let193 (= let192 let191)))
  (let ((let194 (ff.mul let189 let0)))
  (let ((let195 _31))
  (let ((let196 _5))
  (let ((let197 (ff.add let196 let195 let194)))
  (let ((let198 (ff.mul let195 let196)))
  (let ((let199 (= let198 let197)))
  (let ((let200 (ff.mul let195 let0)))
  (let ((let201 _30))
  (let ((let202 _4))
  (let ((let203 (ff.add let202 let201 let200)))
  (let ((let204 (ff.mul let201 let202)))
  (let ((let205 (= let204 let203)))
  (let ((let206 (ff.mul let201 let0)))
  (let ((let207 _29))
  (let ((let208 _3))
  (let ((let209 (ff.add let208 let207 let206)))
  (let ((let210 (ff.mul let207 let208)))
  (let ((let211 (= let210 let209)))
  (let ((let212 (ff.mul let207 let0)))
  (let ((let213 _28))
  (let ((let214 _2))
  (let ((let215 (ff.add let214 let213 let212)))
  (let ((let216 (ff.mul let213 let214)))
  (let ((let217 (= let216 let215)))
  (let ((let218 (ff.mul let213 let0)))
  (let ((let219 _27))
  (let ((let220 _19))
  (let ((let221 (ff.add let220 let219 let218)))
  (let ((let222 (ff.mul let219 let220)))
  (let ((let223 (= let222 let221)))
  (let ((let224 (ff.mul let219 let0)))
  (let ((let225 _26))
  (let ((let226 _18))
  (let ((let227 (ff.add let226 let225 let224)))
  (let ((let228 (ff.mul let225 let226)))
  (let ((let229 (= let228 let227)))
  (let ((let230 (ff.mul let225 let0)))
  (let ((let231 _25))
  (let ((let232 _17))
  (let ((let233 (ff.add let232 let231 let230)))
  (let ((let234 (ff.mul let231 let232)))
  (let ((let235 (= let234 let233)))
  (let ((let236 (ff.mul let231 let0)))
  (let ((let237 _24))
  (let ((let238 _16))
  (let ((let239 (ff.add let238 let237 let236)))
  (let ((let240 (ff.mul let237 let238)))
  (let ((let241 (= let240 let239)))
  (let ((let242 (ff.mul let237 let0)))
  (let ((let243 _23))
  (let ((let244 _15))
  (let ((let245 (ff.add let244 let243 let242)))
  (let ((let246 (ff.mul let243 let244)))
  (let ((let247 (= let246 let245)))
  (let ((let248 (ff.mul let243 let0)))
  (let ((let249 _22))
  (let ((let250 _14))
  (let ((let251 (ff.add let250 let249 let248)))
  (let ((let252 (ff.mul let249 let250)))
  (let ((let253 (= let252 let251)))
  (let ((let254 (ff.mul let249 let0)))
  (let ((let255 _21))
  (let ((let256 _13))
  (let ((let257 (ff.add let256 let255 let254)))
  (let ((let258 (ff.mul let255 let256)))
  (let ((let259 (= let258 let257)))
  (let ((let260 (ff.mul let255 let0)))
  (let ((let261 _20))
  (let ((let262 _12))
  (let ((let263 (ff.add let262 let261 let260)))
  (let ((let264 (ff.mul let261 let262)))
  (let ((let265 (= let264 let263)))
  (let ((let266 (ff.mul let261 let0)))
  (let ((let267 _1))
  (let ((let268 _0))
  (let ((let269 (ff.add let268 let267 let266)))
  (let ((let270 (ff.mul let268 let267)))
  (let ((let271 (= let270 let269)))
  (let ((let272 (ff.mul let220 let220)))
  (let ((let273 (= let272 let220)))
  (let ((let274 (ff.mul let226 let226)))
  (let ((let275 (= let274 let226)))
  (let ((let276 (ff.mul let232 let232)))
  (let ((let277 (= let276 let232)))
  (let ((let278 (ff.mul let238 let238)))
  (let ((let279 (= let278 let238)))
  (let ((let280 (ff.mul let244 let244)))
  (let ((let281 (= let280 let244)))
  (let ((let282 (ff.mul let250 let250)))
  (let ((let283 (= let282 let250)))
  (let ((let284 (ff.mul let256 let256)))
  (let ((let285 (= let284 let256)))
  (let ((let286 (ff.mul let262 let262)))
  (let ((let287 (= let286 let262)))
  (let ((let288 (ff.mul let160 let160)))
  (let ((let289 (= let288 let160)))
  (let ((let290 (ff.mul let166 let166)))
  (let ((let291 (= let290 let166)))
  (let ((let292 (ff.mul let172 let172)))
  (let ((let293 (= let292 let172)))
  (let ((let294 (ff.mul let178 let178)))
  (let ((let295 (= let294 let178)))
  (let ((let296 (ff.mul let184 let184)))
  (let ((let297 (= let296 let184)))
  (let ((let298 (ff.mul let190 let190)))
  (let ((let299 (= let298 let190)))
  (let ((let300 (ff.mul let196 let196)))
  (let ((let301 (= let300 let196)))
  (let ((let302 (ff.mul let202 let202)))
  (let ((let303 (= let302 let202)))
  (let ((let304 (ff.mul let208 let208)))
  (let ((let305 (= let304 let208)))
  (let ((let306 (ff.mul let214 let214)))
  (let ((let307 (= let306 let214)))
  (let ((let308 (ff.mul let267 let267)))
  (let ((let309 (= let308 let267)))
  (let ((let310 (ff.mul let268 let268)))
  (let ((let311 (= let310 let268)))
  (let ((let312 (and let311 let309 let307 let305 let303 let301 let299 let297 let295 let293 let291 let289 let287 let285 let283 let281 let279 let277 let275 let273 let271 let265 let259 let253 let247 let241 let235 let229 let223 let217 let211 let205 let199 let193 let187 let181 let175 let169 let163)))
  (let ((let313 out_alt))
  (let ((let314 out))
  (let ((let315 (= let314 let313)))
  (let ((let316 (not let315)))
  (let ((let317 (= let220 let64)))
  (let ((let318 (= let268 let112)))
  (let ((let319 (= let172 let16)))
  (let ((let320 (= let226 let70)))
  (let ((let321 (= let160 let4)))
  (let ((let322 (= let250 let94)))
  (let ((let323 (= let190 let34)))
  (let ((let324 (= let202 let46)))
  (let ((let325 (= let178 let22)))
  (let ((let326 (= let208 let52)))
  (let ((let327 (= let166 let10)))
  (let ((let328 (= let256 let100)))
  (let ((let329 (= let244 let88)))
  (let ((let330 (= let262 let106)))
  (let ((let331 (= let267 let111)))
  (let ((let332 (= let232 let76)))
  (let ((let333 (= let238 let82)))
  (let ((let334 (= let196 let40)))
  (let ((let335 (= let214 let58)))
  (let ((let336 (= let184 let28)))
  (let ((let337 (and let336 let335 let334 let333 let332 let331 let330 let329 let328 let327 let326 let325 let324 let323 let322 let321 let320 let319 let318 let317)))
  (let ((let338 (and let337 let316 let312 let156)))
  let338
)))))))))))))))))))))))))))))))))))))))))))))))))))))))))))))))))))))))))))))))))))))))))))))))))))))))))))))))))))))))))))))))))))))))))))))))))))))))))))))))))))))))))))))))))))))))))))))))))))))))))))))))))))))))))))))))))))))))))))))))))))))))))))))))))))))))))))))))))))))))))))))))))))))))))))))))))))))))))))))))))))))))))))))))))))
)
(check-sat)
